N = 8;
H = 6;
T = 2;

avail = array3d(1..N, 1..H, 1..T, [5, 10, 7, 10, 3, 7, 2, 8, 9, 0, 10, 0, 10, 9, 1, 7, 6, 4, 7, 8, 8, 10, 9, 4, 5, 7, 10, 0, 1, 9, 3, 3, 8, 9, 2, 9, 6, 3, 7, 5, 7, 10, 10, 0, 7, 4, 5, 8, 6, 10, 10, 2, 1, 3, 10, 1, 4, 4, 3, 3, 4, 8, 9, 5, 6, 5, 6, 3, 0, 5, 0, 1, 6, 3, 5, 4, 2, 0, 1, 3, 8, 5, 2, 0, 2, 8, 5, 7, 5, 5, 1, 10, 0, 2, 2, 6]);

r = array2d(1..H, 1..T, [4, 3, 3, 2, 0, 2, 3, 3, 1, 1, 1, 0]);
